42
1 0 4
2 0 6
2 1 17
3 0 9
3 1 12
3 2 5
4 0 18
4 1 7
4 2 12
4 3 15
5 0 9
5 1 12
5 2 19
5 3 10
5 4 5
6 0 4
6 1 19
6 2 11
6 3 18
6 4 4
6 5 7
7 0 7
7 1 2
7 2 11
7 3 4
7 4 9
7 5 15
7 6 16
8 0 3
8 1 3
8 2 8
8 3 7
8 4 15
8 5 1
8 6 3
8 7 9
9 0 2
9 1 5
9 2 18
9 3 3
9 4 9
9 5 1
9 6 8
9 7 5
9 8 18
10 0 15
10 1 6
10 2 13
10 3 13
10 4 4
10 5 17
10 6 15
10 7 8
10 8 2
10 9 12
11 0 17
11 1 9
11 2 18
11 3 9
11 4 15
11 5 12
11 6 15
11 7 10
11 8 13
11 9 4
11 10 10
12 0 7
12 1 11
12 2 1
12 3 15
12 4 16
12 5 13
12 6 18
12 7 2
12 8 6
12 9 15
12 10 8
12 11 12
13 0 12
13 1 16
13 2 8
13 3 15
13 4 7
13 5 7
13 6 14
13 7 19
13 8 19
13 9 1
13 10 10
13 11 5
13 12 2
14 0 4
14 1 16
14 2 8
14 3 1
14 4 15
14 5 14
14 6 2
14 7 1
14 8 5
14 9 2
14 10 3
14 11 17
14 12 16
14 13 17
15 0 3
15 1 14
15 2 9
15 3 4
15 4 10
15 5 10
15 6 15
15 7 17
15 8 18
15 9 3
15 10 18
15 11 2
15 12 18
15 13 14
15 14 15
16 0 10
16 1 12
16 2 18
16 3 4
16 4 14
16 5 15
16 6 5
16 7 5
16 8 17
16 9 11
16 10 18
16 11 6
16 12 2
16 13 17
16 14 16
16 15 2
17 0 4
17 1 6
17 2 18
17 3 9
17 4 7
17 5 15
17 6 2
17 7 2
17 8 11
17 9 14
17 10 3
17 11 3
17 12 17
17 13 10
17 14 11
17 15 15
17 16 5
18 0 1
18 1 1
18 2 1
18 3 4
18 4 7
18 5 2
18 6 8
18 7 6
18 8 3
18 9 10
18 10 5
18 11 11
18 12 4
18 13 10
18 14 15
18 15 12
18 16 5
18 17 7
19 0 5
19 1 2
19 2 8
19 3 3
19 4 10
19 5 13
19 6 1
19 7 1
19 8 10
19 9 15
19 10 17
19 11 11
19 12 13
19 13 12
19 14 13
19 15 7
19 16 11
19 17 10
19 18 19
20 0 4
20 1 18
20 2 15
20 3 6
20 4 1
20 5 13
20 6 1
20 7 8
20 8 19
20 9 10
20 10 13
20 11 8
20 12 19
20 13 2
20 14 12
20 15 8
20 16 3
20 17 2
20 18 14
20 19 2
21 0 3
21 1 17
21 2 13
21 3 15
21 4 16
21 5 14
21 6 2
21 7 3
21 8 10
21 9 11
21 10 10
21 11 19
21 12 15
21 13 18
21 14 2
21 15 13
21 16 10
21 17 16
21 18 13
21 19 4
21 20 8
22 0 12
22 1 12
22 2 11
22 3 10
22 4 7
22 5 2
22 6 16
22 7 1
22 8 16
22 9 17
22 10 11
22 11 11
22 12 17
22 13 15
22 14 7
22 15 7
22 16 19
22 17 18
22 18 4
22 19 16
22 20 2
22 21 10
23 0 16
23 1 11
23 2 14
23 3 16
23 4 19
23 5 12
23 6 15
23 7 4
23 8 5
23 9 14
23 10 13
23 11 7
23 12 5
23 13 5
23 14 19
23 15 11
23 16 15
23 17 6
23 18 15
23 19 12
23 20 5
23 21 19
23 22 6
24 0 4
24 1 3
24 2 5
24 3 18
24 4 17
24 5 18
24 6 1
24 7 1
24 8 19
24 9 6
24 10 13
24 11 18
24 12 10
24 13 16
24 14 7
24 15 2
24 16 1
24 17 10
24 18 1
24 19 13
24 20 7
24 21 19
24 22 19
24 23 17
25 0 18
25 1 6
25 2 14
25 3 16
25 4 10
25 5 8
25 6 8
25 7 8
25 8 5
25 9 15
25 10 8
25 11 16
25 12 5
25 13 5
25 14 9
25 15 10
25 16 15
25 17 3
25 18 11
25 19 2
25 20 5
25 21 1
25 22 7
25 23 1
25 24 19
26 0 12
26 1 19
26 2 10
26 3 7
26 4 16
26 5 18
26 6 8
26 7 10
26 8 1
26 9 6
26 10 14
26 11 9
26 12 2
26 13 6
26 14 11
26 15 17
26 16 5
26 17 6
26 18 18
26 19 11
26 20 3
26 21 13
26 22 1
26 23 15
26 24 7
26 25 16
27 0 18
27 1 15
27 2 17
27 3 8
27 4 1
27 5 2
27 6 6
27 7 1
27 8 13
27 9 11
27 10 13
27 11 11
27 12 10
27 13 10
27 14 12
27 15 5
27 16 16
27 17 7
27 18 14
27 19 8
27 20 9
27 21 3
27 22 8
27 23 5
27 24 5
27 25 19
27 26 8
28 0 10
28 1 5
28 2 17
28 3 9
28 4 4
28 5 17
28 6 7
28 7 10
28 8 12
28 9 3
28 10 15
28 11 15
28 12 4
28 13 2
28 14 9
28 15 17
28 16 11
28 17 9
28 18 7
28 19 19
28 20 16
28 21 5
28 22 2
28 23 4
28 24 13
28 25 10
28 26 11
28 27 5
29 0 19
29 1 10
29 2 8
29 3 13
29 4 19
29 5 3
29 6 18
29 7 4
29 8 10
29 9 8
29 10 15
29 11 12
29 12 4
29 13 6
29 14 13
29 15 5
29 16 19
29 17 1
29 18 10
29 19 8
29 20 15
29 21 1
29 22 19
29 23 17
29 24 7
29 25 7
29 26 8
29 27 13
29 28 2
30 0 9
30 1 7
30 2 8
30 3 15
30 4 1
30 5 5
30 6 1
30 7 3
30 8 8
30 9 14
30 10 13
30 11 9
30 12 9
30 13 19
30 14 12
30 15 9
30 16 18
30 17 5
30 18 4
30 19 5
30 20 7
30 21 9
30 22 7
30 23 18
30 24 2
30 25 12
30 26 5
30 27 17
30 28 5
30 29 15
31 0 13
31 1 12
31 2 8
31 3 5
31 4 13
31 5 3
31 6 14
31 7 11
31 8 10
31 9 2
31 10 1
31 11 12
31 12 19
31 13 10
31 14 16
31 15 5
31 16 19
31 17 11
31 18 5
31 19 5
31 20 16
31 21 7
31 22 15
31 23 16
31 24 7
31 25 17
31 26 16
31 27 13
31 28 12
31 29 6
31 30 1
32 0 10
32 1 12
32 2 5
32 3 14
32 4 9
32 5 19
32 6 19
32 7 16
32 8 14
32 9 6
32 10 15
32 11 11
32 12 14
32 13 7
32 14 19
32 15 11
32 16 19
32 17 18
32 18 11
32 19 12
32 20 1
32 21 10
32 22 12
32 23 10
32 24 1
32 25 1
32 26 2
32 27 4
32 28 13
32 29 7
32 30 7
32 31 8
33 0 8
33 1 4
33 2 11
33 3 19
33 4 9
33 5 9
33 6 7
33 7 19
33 8 10
33 9 3
33 10 15
33 11 12
33 12 15
33 13 17
33 14 15
33 15 10
33 16 13
33 17 11
33 18 7
33 19 2
33 20 17
33 21 2
33 22 13
33 23 8
33 24 8
33 25 5
33 26 19
33 27 10
33 28 3
33 29 8
33 30 3
33 31 16
33 32 14
34 0 17
34 1 2
34 2 14
34 3 19
34 4 3
34 5 6
34 6 1
34 7 17
34 8 18
34 9 12
34 10 3
34 11 16
34 12 11
34 13 9
34 14 9
34 15 13
34 16 8
34 17 8
34 18 13
34 19 15
34 20 9
34 21 3
34 22 12
34 23 15
34 24 13
34 25 9
34 26 11
34 27 11
34 28 9
34 29 9
34 30 2
34 31 4
34 32 3
34 33 15
35 0 10
35 1 19
35 2 18
35 3 17
35 4 2
35 5 16
35 6 1
35 7 4
35 8 18
35 9 8
35 10 1
35 11 17
35 12 15
35 13 6
35 14 16
35 15 15
35 16 15
35 17 5
35 18 15
35 19 10
35 20 19
35 21 14
35 22 3
35 23 1
35 24 4
35 25 3
35 26 6
35 27 7
35 28 15
35 29 18
35 30 1
35 31 6
35 32 15
35 33 6
35 34 15
36 0 3
36 1 1
36 2 12
36 3 11
36 4 2
36 5 19
36 6 5
36 7 17
36 8 7
36 9 15
36 10 11
36 11 8
36 12 19
36 13 13
36 14 6
36 15 1
36 16 5
36 17 2
36 18 3
36 19 1
36 20 14
36 21 14
36 22 18
36 23 10
36 24 8
36 25 8
36 26 3
36 27 8
36 28 12
36 29 16
36 30 16
36 31 18
36 32 16
36 33 1
36 34 5
36 35 19
37 0 4
37 1 1
37 2 8
37 3 15
37 4 10
37 5 18
37 6 3
37 7 5
37 8 19
37 9 18
37 10 10
37 11 6
37 12 7
37 13 3
37 14 10
37 15 14
37 16 15
37 17 6
37 18 12
37 19 11
37 20 3
37 21 3
37 22 4
37 23 12
37 24 1
37 25 7
37 26 8
37 27 14
37 28 8
37 29 16
37 30 13
37 31 8
37 32 14
37 33 14
37 34 18
37 35 7
37 36 1
38 0 12
38 1 8
38 2 10
38 3 1
38 4 12
38 5 11
38 6 6
38 7 15
38 8 3
38 9 10
38 10 18
38 11 17
38 12 6
38 13 7
38 14 8
38 15 10
38 16 1
38 17 11
38 18 11
38 19 4
38 20 2
38 21 11
38 22 12
38 23 18
38 24 3
38 25 12
38 26 1
38 27 3
38 28 4
38 29 15
38 30 5
38 31 16
38 32 3
38 33 1
38 34 17
38 35 10
38 36 19
38 37 11
39 0 14
39 1 14
39 2 4
39 3 19
39 4 2
39 5 14
39 6 13
39 7 15
39 8 14
39 9 6
39 10 8
39 11 11
39 12 7
39 13 16
39 14 16
39 15 9
39 16 15
39 17 1
39 18 6
39 19 7
39 20 10
39 21 19
39 22 10
39 23 1
39 24 14
39 25 14
39 26 10
39 27 5
39 28 15
39 29 19
39 30 14
39 31 10
39 32 11
39 33 2
39 34 3
39 35 1
39 36 19
39 37 4
39 38 11
40 0 17
40 1 12
40 2 6
40 3 8
40 4 7
40 5 12
40 6 14
40 7 3
40 8 17
40 9 10
40 10 14
40 11 4
40 12 18
40 13 8
40 14 18
40 15 17
40 16 7
40 17 17
40 18 9
40 19 10
40 20 10
40 21 17
40 22 19
40 23 5
40 24 13
40 25 14
40 26 1
40 27 17
40 28 14
40 29 16
40 30 3
40 31 9
40 32 18
40 33 13
40 34 4
40 35 5
40 36 19
40 37 19
40 38 12
40 39 12
41 0 3
41 1 11
41 2 6
41 3 4
41 4 12
41 5 12
41 6 8
41 7 4
41 8 5
41 9 4
41 10 10
41 11 8
41 12 10
41 13 10
41 14 19
41 15 7
41 16 4
41 17 5
41 18 2
41 19 12
41 20 19
41 21 17
41 22 6
41 23 16
41 24 7
41 25 12
41 26 6
41 27 13
41 28 19
41 29 8
41 30 4
41 31 6
41 32 18
41 33 13
41 34 9
41 35 3
41 36 6
41 37 11
41 38 18
41 39 9
41 40 17
